(set-info :source |printed by MathSAT|)
(declare-fun ldv_module_refcounter () (_ BitVec 32))

*:
(assert (let ((.def_39887 (= ldv_module_refcounter (_ bv1 32)))).def_39887))
(assert (let ((.def_39892 (bvslt (_ bv1 32) ldv_module_refcounter))).def_39892))

